decision_x1=[0,2];
decision_x2=[0,2];
decision_x3=[0,2];
decision_x4=[0,2];
decision_x5=[0,2];
decision_x6=[0,2];
decision_x7=[0,2];
decision_x8=[0,2];
decision_x9=[0,2];
decision_x10=[0,2];
decision_x11=[0,2];
decision_x12=[0,2];
random_y1=[0,2];
random_y2=[0,2];
random_y3=[0,2];
random_y4=[0,2];
random_y5=[0,2];
random_y6=[0,2];
random_y7=[0,2];
random_y8=[0,2];
random_y9=[0,2];
random_y10=[0,2];
random_y11=[0,2];
random_y12=[0,2];
constraint_x2_x1=[
0,0,1.2|
0,1,2|
0,2,4.2|
1,0,8|
1,1,7.1|
1,2,9.4|
2,0,8.9|
2,1,5.8|
2,2,8.7|
];
constraint_x3_x1=[
0,0,7.2|
0,1,7.2|
0,2,6.3|
1,0,2.5|
1,1,9.3|
1,2,6.8|
2,0,8.5|
2,1,7.2|
2,2,8.3|
];
constraint_x4_x2=[
0,0,9.9|
0,1,7.9|
0,2,4.2|
1,0,7.2|
1,1,3.5|
1,2,7.7|
2,0,6.5|
2,1,7.9|
2,2,3.5|
];
constraint_x4_x3=[
0,0,0.18|
0,1,7.8|
0,2,6.1|
1,0,9.9|
1,1,0.84|
1,2,0.19|
2,0,9.4|
2,1,4.1|
2,2,2.3|
];
constraint_x5_x1=[
0,0,4.2|
0,1,2.9|
0,2,2.8|
1,0,6.3|
1,1,9|
1,2,1.9|
2,0,8.4|
2,1,8.7|
2,2,8.2|
];
constraint_x5_x2=[
0,0,9.5|
0,1,1.9|
0,2,3.5|
1,0,5.8|
1,1,5.2|
1,2,4.2|
2,0,6|
2,1,6.9|
2,2,9.7|
];
constraint_x5_x3=[
0,0,5.5|
0,1,3.8|
0,2,2.4|
1,0,2|
1,1,1.7|
1,2,4.4|
2,0,3.9|
2,1,0.41|
2,2,6.8|
];
constraint_x5_x4=[
0,0,2.5|
0,1,9.2|
0,2,1.6|
1,0,6.1|
1,1,0.27|
1,2,7.5|
2,0,5.1|
2,1,0.041|
2,2,8.9|
];
constraint_x6_x5=[
0,0,2.8|
0,1,3.5|
0,2,1.7|
1,0,1.3|
1,1,3.7|
1,2,1.6|
2,0,7|
2,1,7.6|
2,2,2.4|
];
constraint_x7_x1=[
0,0,4|
0,1,7.3|
0,2,1.6|
1,0,1.8|
1,1,6.2|
1,2,0.95|
2,0,2.7|
2,1,7.4|
2,2,9.8|
];
constraint_x7_x2=[
0,0,8.1|
0,1,3.1|
0,2,10|
1,0,2.9|
1,1,6.6|
1,2,9.4|
2,0,6.7|
2,1,1.6|
2,2,8.3|
];
constraint_x7_x4=[
0,0,1.5|
0,1,3.7|
0,2,3.3|
1,0,0.53|
1,1,2.9|
1,2,0.57|
2,0,1.9|
2,1,9.2|
2,2,7.7|
];
constraint_x7_x6=[
0,0,2.7|
0,1,5.8|
0,2,6.2|
1,0,3.3|
1,1,1.9|
1,2,4.3|
2,0,3.6|
2,1,6.5|
2,2,8.6|
];
constraint_x8_x5=[
0,0,1.7|
0,1,1.3|
0,2,2.9|
1,0,3.5|
1,1,2|
1,2,2.6|
2,0,2.5|
2,1,9.1|
2,2,4|
];
constraint_x8_x7=[
0,0,4.5|
0,1,5.9|
0,2,8.6|
1,0,3.8|
1,1,2.1|
1,2,6|
2,0,9.5|
2,1,8.4|
2,2,0.44|
];
constraint_x9_x3=[
0,0,6.4|
0,1,1.1|
0,2,1|
1,0,7.2|
1,1,0.6|
1,2,10|
2,0,9.2|
2,1,4.8|
2,2,2|
];
constraint_x9_x4=[
0,0,9.2|
0,1,4.9|
0,2,3.4|
1,0,6.8|
1,1,7|
1,2,6.2|
2,0,5.3|
2,1,0.4|
2,2,0.98|
];
constraint_x9_x5=[
0,0,9.8|
0,1,6.1|
0,2,5.8|
1,0,3|
1,1,0.32|
1,2,9|
2,0,3.5|
2,1,2.5|
2,2,9.2|
];
constraint_x9_x6=[
0,0,4.8|
0,1,7.8|
0,2,4.1|
1,0,2.5|
1,1,4|
1,2,8.9|
2,0,7.2|
2,1,9.4|
2,2,1.4|
];
constraint_x10_x1=[
0,0,3.4|
0,1,3.9|
0,2,2.6|
1,0,1.6|
1,1,8.3|
1,2,7.3|
2,0,1.5|
2,1,4.9|
2,2,7.9|
];
constraint_x10_x2=[
0,0,2.3|
0,1,9.7|
0,2,9.7|
1,0,3|
1,1,9.5|
1,2,2.2|
2,0,3.1|
2,1,9.1|
2,2,6.2|
];
constraint_x10_x3=[
0,0,2.7|
0,1,8.1|
0,2,7.7|
1,0,9.1|
1,1,8.8|
1,2,2.8|
2,0,4.6|
2,1,5.7|
2,2,4.8|
];
constraint_x10_x7=[
0,0,4.6|
0,1,3.6|
0,2,5.9|
1,0,1.8|
1,1,3.7|
1,2,5.2|
2,0,8.4|
2,1,9.7|
2,2,4.5|
];
constraint_x10_x8=[
0,0,2.1|
0,1,6.6|
0,2,6.9|
1,0,5.7|
1,1,2.4|
1,2,5.7|
2,0,4.8|
2,1,5.3|
2,2,1.6|
];
constraint_x11_x1=[
0,0,5.2|
0,1,9.5|
0,2,8.6|
1,0,4.6|
1,1,9.2|
1,2,8.1|
2,0,6.2|
2,1,9.7|
2,2,1.4|
];
constraint_x11_x4=[
0,0,7.4|
0,1,0.76|
0,2,0.41|
1,0,2.2|
1,1,7.6|
1,2,2.7|
2,0,8.1|
2,1,4|
2,2,6.7|
];
constraint_x11_x6=[
0,0,4.6|
0,1,3.1|
0,2,0.39|
1,0,9.4|
1,1,6.3|
1,2,6.3|
2,0,1.4|
2,1,8.4|
2,2,4.9|
];
constraint_x11_x8=[
0,0,0.82|
0,1,0.9|
0,2,7.2|
1,0,5.4|
1,1,10|
1,2,8.2|
2,0,6.8|
2,1,1.9|
2,2,7.4|
];
constraint_x11_x9=[
0,0,6.9|
0,1,0.35|
0,2,3.2|
1,0,7.5|
1,1,9.7|
1,2,5.8|
2,0,3.4|
2,1,3.5|
2,2,8.2|
];
constraint_x12_x3=[
0,0,9.1|
0,1,4.6|
0,2,4.4|
1,0,1.7|
1,1,3|
1,2,9.7|
2,0,8.1|
2,1,3.6|
2,2,7.4|
];
constraint_x12_x7=[
0,0,2.1|
0,1,6.1|
0,2,8.7|
1,0,7.7|
1,1,8.7|
1,2,9.2|
2,0,8.5|
2,1,1.4|
2,2,8.8|
];
constraint_x12_x9=[
0,0,6.3|
0,1,9.5|
0,2,6.1|
1,0,8.3|
1,1,1|
1,2,7.2|
2,0,2.1|
2,1,6|
2,2,6.9|
];
constraint_x12_x10=[
0,0,7|
0,1,5.7|
0,2,4.9|
1,0,6.1|
1,1,8.8|
1,2,0.075|
2,0,2.6|
2,1,5.3|
2,2,1.1|
];
constraint_x1_y1=[
0,0,2.2|
0,1,8.2|
0,2,6.7|
1,0,2.9|
1,1,8.1|
1,2,6.5|
2,0,1.1|
2,1,4.3|
2,2,6.6|
];
constraint_x2_y2=[
0,0,8.2|
0,1,0.27|
0,2,2|
1,0,5.7|
1,1,8.7|
1,2,1.8|
2,0,3.6|
2,1,2.6|
2,2,0.053|
];
constraint_x3_y3=[
0,0,9|
0,1,6|
0,2,8.6|
1,0,7.5|
1,1,2.3|
1,2,4.3|
2,0,1.9|
2,1,7.9|
2,2,3.3|
];
constraint_x4_y4=[
0,0,1.5|
0,1,6.2|
0,2,7.8|
1,0,7.5|
1,1,2.2|
1,2,6.6|
2,0,8.1|
2,1,1.4|
2,2,8.3|
];
constraint_x5_y5=[
0,0,3.3|
0,1,7.1|
0,2,2.5|
1,0,6.1|
1,1,8.3|
1,2,0.0076|
2,0,0.91|
2,1,9|
2,2,0.026|
];
constraint_x6_y6=[
0,0,8.9|
0,1,8.5|
0,2,8.9|
1,0,7.8|
1,1,4.2|
1,2,5.3|
2,0,8.9|
2,1,1.6|
2,2,0.012|
];
constraint_x7_y7=[
0,0,3.8|
0,1,0.99|
0,2,6.6|
1,0,1.2|
1,1,3.4|
1,2,9.1|
2,0,6.9|
2,1,6.8|
2,2,7.2|
];
constraint_x8_y8=[
0,0,3.5|
0,1,9.2|
0,2,1.8|
1,0,6.5|
1,1,8.6|
1,2,1|
2,0,9.3|
2,1,6.5|
2,2,7.4|
];
constraint_x9_y9=[
0,0,6.4|
0,1,7.4|
0,2,8.6|
1,0,6.4|
1,1,8.3|
1,2,3.2|
2,0,4.3|
2,1,1.4|
2,2,5.8|
];
constraint_x10_y10=[
0,0,5.8|
0,1,3.1|
0,2,7.3|
1,0,2.5|
1,1,2.8|
1,2,3.1|
2,0,9.1|
2,1,3.3|
2,2,0.48|
];
constraint_x11_y11=[
0,0,7|
0,1,0.84|
0,2,1|
1,0,6.5|
1,1,8.7|
1,2,1.1|
2,0,3.9|
2,1,8.9|
2,2,5.4|
];
constraint_x12_y12=[
0,0,4.9|
0,1,1.9|
0,2,7.2|
1,0,4.9|
1,1,8.4|
1,2,4.2|
2,0,0.13|
2,1,0.99|
2,2,1.3|
];
initial_distribution_y1=[0.5,0.11,0.39];
initial_distribution_y2=[0.39,0.29,0.32];
initial_distribution_y3=[0.34,0.28,0.38];
initial_distribution_y4=[0.31,0.12,0.57];
initial_distribution_y5=[0.43,0.11,0.46];
initial_distribution_y6=[0.48,0.29,0.23];
initial_distribution_y7=[0.45,0.2,0.35];
initial_distribution_y8=[0.56,0.39,0.045];
initial_distribution_y9=[0.065,0.46,0.47];
initial_distribution_y10=[0.32,0.66,0.017];
initial_distribution_y11=[0.52,0.46,0.02];
initial_distribution_y12=[0.22,0.47,0.31];
transition_y1=[
0.51,0.31,0.18|
0.23,0.53,0.24|
0.56,0.35,0.095|
];
transition_y2=[
0.36,0.42,0.23|
0.21,0.75,0.041|
0.079,0.47,0.45|
];
transition_y3=[
0.45,0.29,0.26|
0.025,0.46,0.52|
0.73,0.018,0.25|
];
transition_y4=[
0.034,0.73,0.24|
0.16,0.66,0.18|
0.16,0.44,0.4|
];
transition_y5=[
0.15,0.75,0.1|
0.82,0.084,0.097|
0.058,0.93,0.012|
];
transition_y6=[
0.43,0.14,0.43|
0.37,0.18,0.45|
0.27,0.19,0.53|
];
transition_y7=[
0.16,0.45,0.39|
0.36,0.53,0.11|
0.6,0.033,0.37|
];
transition_y8=[
0.024,0.47,0.51|
0.29,0.51,0.19|
0.17,0.14,0.69|
];
transition_y9=[
0.26,0.39,0.35|
0.27,0.22,0.51|
0.4,0.18,0.42|
];
transition_y10=[
0.18,0.4,0.43|
0.39,0.14,0.47|
0.18,0.35,0.47|
];
transition_y11=[
0.25,0.31,0.44|
0.026,0.38,0.59|
0.42,0.041,0.54|
];
transition_y12=[
0.36,0.35,0.29|
0.36,0.29,0.35|
0.31,0.33,0.36|
];
